
Gurobi 12.0.2 (win64) logging started Sat Nov  1 18:07:22 2025

Set parameter LogFile to value "resultados DATA_1_n30m05b2d1\instancia_1_log.txt"
Set parameter TimeLimit to value 3600
Gurobi Optimizer version 12.0.2 build v12.0.2rc0 (win64 - Windows 10.0 (19045.2))

CPU model: Intel(R) Core(TM) i5-6300U CPU @ 2.40GHz, instruction set [SSE2|AVX|AVX2]
Thread count: 2 physical cores, 4 logical processors, using up to 4 threads

Non-default parameters:
TimeLimit  3600

Optimize a model with 14955 rows, 47629 columns and 9579132 nonzeros
Model fingerprint: 0xe3158021
Variable types: 0 continuous, 47629 integer (47629 binary)
Coefficient statistics:
  Matrix range     [1e+00, 1e+00]
  Objective range  [4e-03, 2e-02]
  Bounds range     [1e+00, 1e+00]
  RHS range        [1e+00, 1e+02]
Found heuristic solution: objective 0.9226296
Presolve removed 0 rows and 4192 columns (presolve time = 5s)...
Presolve removed 0 rows and 14319 columns (presolve time = 10s)...
Presolve removed 0 rows and 14319 columns (presolve time = 15s)...
Presolve removed 666 rows and 14417 columns (presolve time = 20s)...
Presolve removed 740 rows and 14471 columns (presolve time = 25s)...
Presolve removed 740 rows and 14471 columns (presolve time = 30s)...
Presolve removed 740 rows and 14471 columns (presolve time = 35s)...
Presolve removed 740 rows and 14471 columns (presolve time = 40s)...
Presolve removed 740 rows and 14471 columns (presolve time = 45s)...
Presolve removed 740 rows and 14471 columns (presolve time = 50s)...
Presolve removed 740 rows and 14471 columns (presolve time = 55s)...
Presolve removed 740 rows and 14471 columns (presolve time = 60s)...
Presolve removed 740 rows and 14471 columns (presolve time = 65s)...
Presolve removed 740 rows and 14471 columns (presolve time = 70s)...
Presolve removed 740 rows and 14471 columns (presolve time = 75s)...
Presolve removed 740 rows and 14471 columns (presolve time = 80s)...
Presolve removed 740 rows and 14471 columns (presolve time = 85s)...
Presolve removed 740 rows and 14471 columns (presolve time = 90s)...
Presolve removed 740 rows and 14471 columns (presolve time = 95s)...
Presolve removed 740 rows and 14471 columns (presolve time = 100s)...
Presolve removed 740 rows and 14471 columns
Presolve time: 101.92s
Presolved: 14215 rows, 33158 columns, 6562120 nonzeros
Found heuristic solution: objective 0.8166667
Variable types: 0 continuous, 33158 integer (33158 binary)
Deterministic concurrent LP optimizer: dual simplex and barrier
Showing barrier log only...

Root barrier log...

Ordering time: 2.61s

Barrier statistics:
 AA' NZ     : 1.939e+07
 Factor NZ  : 8.998e+07 (roughly 700 MB of memory)
 Factor Ops : 7.557e+11 (roughly 60 seconds per iteration)
 Threads    : 1

                  Objective                Residual
Iter       Primal          Dual         Primal    Dual     Compl     Time
   0   3.75079693e+03 -0.00000000e+00  1.19e+05 2.36e-02  4.22e-01   123s
   1   4.26561367e+02  2.49547605e+01  1.39e+04 4.58e-03  4.86e-02   163s
   2   4.59004746e+01  1.72120499e+01  1.75e+03 1.53e-04  5.68e-03   199s
   3   2.64214674e+00  1.30576629e+01  7.69e+01 2.78e-16  3.85e-04   232s
   4   1.01755228e+00  7.33360811e+00  1.14e+01 2.78e-16  1.14e-04   268s
   5   8.05080514e-01  2.27284684e+00  2.54e-02 2.22e-16  1.89e-05   306s
   6   8.57573295e-01  1.62461609e+00  1.02e-02 1.28e-16  9.69e-06   345s
   7   9.07588434e-01  1.26664291e+00  7.44e-03 7.98e-17  4.53e-06   384s
   8   9.69802463e-01  1.04883158e+00  9.62e-04 4.42e-17  9.87e-07   422s
   9   9.86061320e-01  1.01448359e+00  0.00e+00 2.65e-17  3.54e-07   459s
  10   9.96164082e-01  1.00322077e+00  0.00e+00 3.69e-17  8.78e-08   501s
  11   9.98926179e-01  1.00041241e+00  0.00e+00 3.12e-17  1.85e-08   543s
  12   9.99569944e-01  9.99927163e-01  0.00e+00 4.84e-17  4.44e-09   584s
  13   9.99721742e-01  9.99806266e-01  0.00e+00 3.79e-17  1.05e-09   624s
  14   9.99766444e-01  9.99778630e-01  0.00e+00 3.95e-17  1.51e-10   661s
  15   9.99770448e-01  9.99775470e-01  0.00e+00 3.84e-17  6.24e-11   694s
  16   9.99773007e-01  9.99773513e-01  0.00e+00 3.22e-17  6.28e-12   732s
  17   9.99773166e-01  9.99773260e-01  0.00e+00 4.26e-15  1.17e-12   766s
  18   9.99773218e-01  9.99773221e-01  1.29e-10 1.60e-14  4.08e-14   804s

Barrier solved model in 18 iterations and 804.16 seconds (512.06 work units)
Optimal objective 9.99773218e-01


Root crossover log...

    4976 variables added to crossover basis                      805s
    6748 variables added to crossover basis                      810s
    7348 variables added to crossover basis                      815s
    7738 variables added to crossover basis                      821s
    7979 variables added to crossover basis                      825s
    8159 variables added to crossover basis                      830s
    8309 variables added to crossover basis                      835s
    8459 variables added to crossover basis                      841s
    8549 variables added to crossover basis                      845s
    8639 variables added to crossover basis                      851s
    8729 variables added to crossover basis                      855s
    8819 variables added to crossover basis                      861s
    8879 variables added to crossover basis                      865s
    8939 variables added to crossover basis                      870s
    8999 variables added to crossover basis                      877s
    9029 variables added to crossover basis                      881s
    9089 variables added to crossover basis                      887s
    9119 variables added to crossover basis                      891s
    9179 variables added to crossover basis                      897s
    9209 variables added to crossover basis                      901s
    9269 variables added to crossover basis                      907s
    9299 variables added to crossover basis                      911s
    9329 variables added to crossover basis                      916s
    9359 variables added to crossover basis                      920s

Restart crossover...

    2666 variables added to crossover basis                     1170s
    6298 variables added to crossover basis                     1175s
    6778 variables added to crossover basis                     1181s
    6958 variables added to crossover basis                     1185s
    7078 variables added to crossover basis                     1190s
    7138 variables added to crossover basis                     1196s
    7198 variables added to crossover basis                     1201s
    7258 variables added to crossover basis                     1209s
    7288 variables added to crossover basis                     1213s
    7318 variables added to crossover basis                     1220s
    7378 variables added to crossover basis                     1231s
    7393 variables added to crossover basis                     1236s
    7413 variables added to crossover basis                     1240s
    7433 variables added to crossover basis                     1245s
    7453 variables added to crossover basis                     1250s
    7473 variables added to crossover basis                     1255s
    7502 variables added to crossover basis                     1262s
    7522 variables added to crossover basis                     1267s
    7532 variables added to crossover basis                     1270s
    7551 variables added to crossover basis                     1276s
    7571 variables added to crossover basis                     1280s
    7591 variables added to crossover basis                     1285s
    7621 variables added to crossover basis                     1292s
    7641 variables added to crossover basis                     1296s
    7661 variables added to crossover basis                     1301s
    7689 variables added to crossover basis                     1307s
    7708 variables added to crossover basis                     1312s
    7728 variables added to crossover basis                     1316s
    7748 variables added to crossover basis                     1321s
    7768 variables added to crossover basis                     1325s
    7798 variables added to crossover basis                     1332s
    7818 variables added to crossover basis                     1337s
    7838 variables added to crossover basis                     1341s
    7868 variables added to crossover basis                     1347s
    7888 variables added to crossover basis                     1351s
    7918 variables added to crossover basis                     1357s
    7938 variables added to crossover basis                     1361s
    7958 variables added to crossover basis                     1365s
    7987 variables added to crossover basis                     1371s
    8007 variables added to crossover basis                     1376s
    8037 variables added to crossover basis                     1381s
    8057 variables added to crossover basis                     1385s
    8086 variables added to crossover basis                     1391s
    8116 variables added to crossover basis                     1397s
    8136 variables added to crossover basis                     1400s
    8156 variables added to crossover basis                     1405s
    8186 variables added to crossover basis                     1411s
    8216 variables added to crossover basis                     1417s
    8236 variables added to crossover basis                     1420s
    8266 variables added to crossover basis                     1426s
    8295 variables added to crossover basis                     1431s
    8325 variables added to crossover basis                     1437s
    8345 variables added to crossover basis                     1441s
    8365 variables added to crossover basis                     1445s
    8395 variables added to crossover basis                     1450s
    8424 variables added to crossover basis                     1455s
    8453 variables added to crossover basis                     1460s
    8482 variables added to crossover basis                     1465s
    8511 variables added to crossover basis                     1470s
    8541 variables added to crossover basis                     1475s
    8571 variables added to crossover basis                     1481s
    8601 variables added to crossover basis                     1486s
    8631 variables added to crossover basis                     1491s
    8661 variables added to crossover basis                     1496s
    8690 variables added to crossover basis                     1501s

Gurobi 12.0.2 (win64) logging started Sat Nov  1 18:39:58 2025

Set parameter LogFile to value "resultados DATA_1_n30m05b2d1\instancia_1_log.txt"
Set parameter TimeLimit to value 360
Gurobi Optimizer version 12.0.2 build v12.0.2rc0 (win64 - Windows 10.0 (19045.2))

CPU model: Intel(R) Core(TM) i5-6300U CPU @ 2.40GHz, instruction set [SSE2|AVX|AVX2]
Thread count: 2 physical cores, 4 logical processors, using up to 4 threads

Non-default parameters:
TimeLimit  360

Optimize a model with 14955 rows, 47629 columns and 9579132 nonzeros
Model fingerprint: 0xe3158021
Variable types: 0 continuous, 47629 integer (47629 binary)
Coefficient statistics:
  Matrix range     [1e+00, 1e+00]
  Objective range  [4e-03, 2e-02]
  Bounds range     [1e+00, 1e+00]
  RHS range        [1e+00, 1e+02]
Found heuristic solution: objective 0.9226296
Presolve removed 0 rows and 6022 columns (presolve time = 5s)...
Presolve removed 0 rows and 14319 columns (presolve time = 10s)...
Presolve removed 666 rows and 14424 columns (presolve time = 15s)...
Presolve removed 740 rows and 14471 columns (presolve time = 20s)...
Presolve removed 740 rows and 14471 columns (presolve time = 25s)...
Presolve removed 740 rows and 14471 columns (presolve time = 30s)...
Presolve removed 740 rows and 14471 columns (presolve time = 35s)...
Presolve removed 740 rows and 14471 columns (presolve time = 40s)...
Presolve removed 740 rows and 14471 columns (presolve time = 45s)...
Presolve removed 740 rows and 14471 columns (presolve time = 50s)...
Presolve removed 740 rows and 14471 columns (presolve time = 55s)...
Presolve removed 740 rows and 14471 columns (presolve time = 60s)...
Presolve removed 740 rows and 14471 columns (presolve time = 65s)...
Presolve removed 740 rows and 14471 columns (presolve time = 70s)...
Presolve removed 740 rows and 14471 columns (presolve time = 75s)...
Presolve removed 740 rows and 14471 columns (presolve time = 80s)...
Presolve removed 740 rows and 14471 columns (presolve time = 85s)...
Presolve removed 740 rows and 14471 columns (presolve time = 90s)...
Presolve removed 740 rows and 14471 columns
Presolve time: 93.27s
Presolved: 14215 rows, 33158 columns, 6562120 nonzeros
Found heuristic solution: objective 0.8166667
Variable types: 0 continuous, 33158 integer (33158 binary)
Deterministic concurrent LP optimizer: dual simplex and barrier
Showing barrier log only...

Root barrier log...

Ordering time: 2.15s

Barrier statistics:
 AA' NZ     : 1.939e+07
 Factor NZ  : 8.998e+07 (roughly 700 MB of memory)
 Factor Ops : 7.557e+11 (roughly 40 seconds per iteration)
 Threads    : 1

                  Objective                Residual
Iter       Primal          Dual         Primal    Dual     Compl     Time
   0   3.75079693e+03 -0.00000000e+00  1.19e+05 2.36e-02  4.22e-01   114s
   1   4.26561367e+02  2.49547605e+01  1.39e+04 4.58e-03  4.86e-02   153s
   2   4.59004746e+01  1.72120499e+01  1.75e+03 1.53e-04  5.68e-03   187s
   3   2.64214674e+00  1.30576629e+01  7.69e+01 2.78e-16  3.85e-04   220s
   4   1.01755228e+00  7.33360811e+00  1.14e+01 2.78e-16  1.14e-04   255s
   5   8.05080514e-01  2.27284684e+00  2.54e-02 2.22e-16  1.89e-05   288s
   6   8.57573295e-01  1.62461609e+00  1.02e-02 1.28e-16  9.69e-06   322s
   7   9.07588434e-01  1.26664291e+00  7.44e-03 7.98e-17  4.53e-06   357s

Barrier performed 7 iterations in 360.28 seconds (257.59 work units)
Time limit reached



Root relaxation: time limit, 0 iterations, 265.71 seconds (212.69 work units)

    Nodes    |    Current Node    |     Objective Bounds      |     Work
 Expl Unexpl |  Obj  Depth IntInf | Incumbent    BestBd   Gap | It/Node Time

     0     0          -    0         0.92263  288.56767      -     -  360s

Explored 1 nodes (0 simplex iterations) in 360.56 seconds (257.74 work units)
Thread count was 4 (of 4 available processors)

Solution count 2: 0.92263 0.816667 

Time limit reached
Best objective 9.226296296296e-01, best bound 2.885676666669e+02, gap 31176.6529%
